benchmark/results/graph__10-1000-0.10-02_9/graph__10-1000-0.10-02_9_Quinton_Benders_sub.lp
\ This file has been generated by DOcplex
\ ENCODING=ISO-8859-1
\Problem name: Quinton Benders_dual_sub

Minimize
 obj: 0.001349527665 pi_nr_a0 + 0.001572327044 pi_nr_a1
      + 0.000856164384 pi_nr_a2 + 0.000914913083 pi_nr_a3
      + 0.001200480192 pi_nr_a4 + 0.001164144354 pi_nr_a5
      + 0.001335113485 pi_nr_a6 + 0.000796812749 pi_nr_a7
      + 0.000856164384 pi_nr_a8 + 0.001890359168 pi_nr_a9 + 2 pi_p_a1_a0
      + pi_p_a0_a2 + 2 pi_p_a5_a4 + pi_p_a5_a6 + pi_p_a3_a4
      + 2509 pi_d_a0_a1_proc_1 - pi_d_a0_a1_proc_0 + 2512 pi_d_a1_a0_proc_1
      + 2 pi_d_a1_a0_proc_0 + pi_d_a0_a2_proc_0 - pi_d_a0_a3_proc_0
      + 2 pi_d_a3_a0_proc_0 + 2511 pi_d_a4_a0_proc_1 + 2511 pi_d_a4_a0_proc_0
      - 2 pi_d_a0_a5_proc_1 - 2 pi_d_a0_a5_proc_0 + 2513 pi_d_a5_a0_proc_1
      + 2513 pi_d_a5_a0_proc_0 + 2509 pi_d_a0_a6_proc_1 + 2509 pi_d_a0_a6_proc_0
      + 2 pi_d_a6_a0_proc_1 + 2 pi_d_a6_a0_proc_0 + 1241 pi_d_a0_a7_proc_1
      + 1241 pi_d_a0_a7_proc_0 + 1270 pi_d_a7_a0_proc_1 + 1270 pi_d_a7_a0_proc_0
      + 2509 pi_d_a0_a8_proc_1 + 2509 pi_d_a0_a8_proc_0 + 2 pi_d_a8_a0_proc_1
      + 2 pi_d_a8_a0_proc_0 + 2511 pi_d_a0_a9_proc_1 + pi_d_a0_a9_proc_0
      + 2510 pi_d_a9_a0_proc_1 + 3 pi_d_a1_a2_proc_0 - 2 pi_d_a2_a1_proc_0
      + pi_d_a1_a3_proc_0 + 2511 pi_d_a1_a4_proc_1 + 2511 pi_d_a1_a4_proc_0
      + 1451 pi_d_a1_a5_proc_1 + 1451 pi_d_a1_a5_proc_0 + 1060 pi_d_a5_a1_proc_1
      + 1060 pi_d_a5_a1_proc_0 + 2511 pi_d_a1_a6_proc_1 + 2511 pi_d_a1_a6_proc_0
      + 2510 pi_d_a1_a7_proc_1 + 2510 pi_d_a1_a7_proc_0 + pi_d_a7_a1_proc_1
      + pi_d_a7_a1_proc_0 + 2511 pi_d_a1_a8_proc_1 + 2511 pi_d_a1_a8_proc_0
      + 2512 pi_d_a1_a9_proc_1 + 2 pi_d_a1_a9_proc_0 + 2509 pi_d_a9_a1_proc_1
      - pi_d_a9_a1_proc_0 - 2 pi_d_a2_a3_proc_0 + 3 pi_d_a3_a2_proc_0
      + 2509 pi_d_a2_a4_proc_0 + 2 pi_d_a4_a2_proc_0 + 2507 pi_d_a2_a5_proc_0
      + 4 pi_d_a5_a2_proc_0 - 2 pi_d_a2_a6_proc_0 + 2513 pi_d_a6_a2_proc_0
      - 2 pi_d_a2_a7_proc_0 + 2513 pi_d_a7_a2_proc_0 + 2508 pi_d_a2_a8_proc_0
      + 3 pi_d_a8_a2_proc_0 + pi_d_a9_a2_proc_0 + 2511 pi_d_a3_a4_proc_0
      + 2510 pi_d_a3_a5_proc_0 + pi_d_a5_a3_proc_0 + 1797 pi_d_a3_a6_proc_0
      + 714 pi_d_a6_a3_proc_0 + 2510 pi_d_a3_a7_proc_0 + pi_d_a7_a3_proc_0
      + 2511 pi_d_a3_a8_proc_0 + 2 pi_d_a3_a9_proc_0 - pi_d_a9_a3_proc_0
      - pi_d_a4_a5_proc_1 + 2509 pi_d_a4_a5_proc_0 + 2 pi_d_a5_a4_proc_1
      + 2512 pi_d_a5_a4_proc_0 + 2510 pi_d_a4_a6_proc_0 + pi_d_a6_a4_proc_1
      + 2511 pi_d_a6_a4_proc_0 - pi_d_a4_a7_proc_1 + 2509 pi_d_a4_a7_proc_0
      + 2 pi_d_a7_a4_proc_1 + 2512 pi_d_a7_a4_proc_0 + 2510 pi_d_a4_a8_proc_0
      + pi_d_a8_a4_proc_1 + 2511 pi_d_a8_a4_proc_0 + pi_d_a4_a9_proc_1
      + pi_d_a4_a9_proc_0 + 2510 pi_d_a9_a4_proc_1 + 2510 pi_d_a9_a4_proc_0
      + pi_d_a5_a6_proc_1 + 2511 pi_d_a5_a6_proc_0 + 2510 pi_d_a6_a5_proc_0
      + pi_d_a5_a7_proc_1 + 2511 pi_d_a5_a7_proc_0 + 2510 pi_d_a7_a5_proc_0
      + pi_d_a5_a8_proc_1 + 2511 pi_d_a5_a8_proc_0 + 2510 pi_d_a8_a5_proc_0
      + 3 pi_d_a5_a9_proc_1 + 3 pi_d_a5_a9_proc_0 + 2508 pi_d_a9_a5_proc_1
      + 2508 pi_d_a9_a5_proc_0 + 2510 pi_d_a6_a7_proc_0 + pi_d_a7_a6_proc_1
      + 2511 pi_d_a7_a6_proc_0 + pi_d_a6_a8_proc_1 + 2511 pi_d_a6_a8_proc_0
      + 2510 pi_d_a8_a6_proc_0 + 2512 pi_d_a6_a9_proc_1 + 2512 pi_d_a6_a9_proc_0
      - pi_d_a9_a6_proc_1 - pi_d_a9_a6_proc_0 + pi_d_a7_a8_proc_1
      + 2511 pi_d_a7_a8_proc_0 + 2510 pi_d_a8_a7_proc_0 + 1035 pi_d_a7_a9_proc_1
      + 1035 pi_d_a7_a9_proc_0 + 1476 pi_d_a9_a7_proc_1 + 1476 pi_d_a9_a7_proc_0
      + 2512 pi_d_a8_a9_proc_1 + 2512 pi_d_a8_a9_proc_0 - pi_d_a9_a8_proc_1
      - pi_d_a9_a8_proc_0 + pi_y2_a0_proc_0 + pi_y2_a1_proc_0 + pi_y2_a2_proc_0
      + pi_y2_a3_proc_0 + pi_y2_a4_proc_1 + pi_y2_a5_proc_1 + pi_y2_a6_proc_1
      + pi_y2_a7_proc_1 + pi_y2_a8_proc_1 + pi_y2_a9_proc_0
Subject To
 c1: pi_nr_a0 + pi_nr_a1 + pi_nr_a2 + pi_nr_a3 + pi_nr_a4 + pi_nr_a5 + pi_nr_a6
     + pi_nr_a7 + pi_nr_a8 + pi_nr_a9 - pi_y1_a0 - pi_y1_a1 - pi_y1_a2
     - pi_y1_a3 - pi_y1_a4 - pi_y1_a5 - pi_y1_a6 - pi_y1_a7 - pi_y1_a8
     - pi_y1_a9 >= 1
 c2: - pi_p_a1_a0 + pi_p_a0_a2 - pi_p_a2_a0 - pi_p_a9_a0 + pi_d_a0_a1_proc_1
     + pi_d_a0_a1_proc_0 - pi_d_a1_a0_proc_1 - pi_d_a1_a0_proc_0
     + pi_d_a0_a2_proc_0 - pi_d_a2_a0_proc_0 + pi_d_a0_a3_proc_0
     - pi_d_a3_a0_proc_0 + pi_d_a0_a4_proc_1 + pi_d_a0_a4_proc_0
     - pi_d_a4_a0_proc_1 - pi_d_a4_a0_proc_0 + pi_d_a0_a5_proc_1
     + pi_d_a0_a5_proc_0 - pi_d_a5_a0_proc_1 - pi_d_a5_a0_proc_0
     + pi_d_a0_a6_proc_1 + pi_d_a0_a6_proc_0 - pi_d_a6_a0_proc_1
     - pi_d_a6_a0_proc_0 + pi_d_a0_a7_proc_1 + pi_d_a0_a7_proc_0
     - pi_d_a7_a0_proc_1 - pi_d_a7_a0_proc_0 + pi_d_a0_a8_proc_1
     + pi_d_a0_a8_proc_0 - pi_d_a8_a0_proc_1 - pi_d_a8_a0_proc_0
     + pi_d_a0_a9_proc_1 + pi_d_a0_a9_proc_0 - pi_d_a9_a0_proc_1
     - pi_d_a9_a0_proc_0 >= 0
 c3: 741 pi_p_a0_a2 + 741 pi_d_a0_a1_proc_0 + 741 pi_d_a0_a2_proc_0
     + 741 pi_d_a0_a3_proc_0 + 741 pi_d_a0_a4_proc_0 + 741 pi_d_a0_a5_proc_0
     + 741 pi_d_a0_a6_proc_0 + 741 pi_d_a0_a7_proc_0 + 741 pi_d_a0_a8_proc_0
     + 741 pi_d_a0_a9_proc_0 + pi_y1_a0 + pi_y2_a0_proc_0 >= 0
 c4: 591 pi_p_a0_a2 + 591 pi_d_a0_a1_proc_1 + 591 pi_d_a0_a4_proc_1
     + 591 pi_d_a0_a5_proc_1 + 591 pi_d_a0_a6_proc_1 + 591 pi_d_a0_a7_proc_1
     + 591 pi_d_a0_a8_proc_1 + 591 pi_d_a0_a9_proc_1 + pi_y1_a0
     + pi_y2_a0_proc_1 >= 0
 c5: pi_p_a1_a0 - pi_p_a3_a1 - pi_p_a6_a1 - pi_d_a0_a1_proc_1
     - pi_d_a0_a1_proc_0 + pi_d_a1_a0_proc_1 + pi_d_a1_a0_proc_0
     + pi_d_a1_a2_proc_0 - pi_d_a2_a1_proc_0 + pi_d_a1_a3_proc_0
     - pi_d_a3_a1_proc_0 + pi_d_a1_a4_proc_1 + pi_d_a1_a4_proc_0
     - pi_d_a4_a1_proc_1 - pi_d_a4_a1_proc_0 + pi_d_a1_a5_proc_1
     + pi_d_a1_a5_proc_0 - pi_d_a5_a1_proc_1 - pi_d_a5_a1_proc_0
     + pi_d_a1_a6_proc_1 + pi_d_a1_a6_proc_0 - pi_d_a6_a1_proc_1
     - pi_d_a6_a1_proc_0 + pi_d_a1_a7_proc_1 + pi_d_a1_a7_proc_0
     - pi_d_a7_a1_proc_1 - pi_d_a7_a1_proc_0 + pi_d_a1_a8_proc_1
     + pi_d_a1_a8_proc_0 - pi_d_a8_a1_proc_1 - pi_d_a8_a1_proc_0
     + pi_d_a1_a9_proc_1 + pi_d_a1_a9_proc_0 - pi_d_a9_a1_proc_1
     - pi_d_a9_a1_proc_0 >= 0
 c6: 636 pi_p_a1_a0 + 636 pi_d_a1_a0_proc_0 + 636 pi_d_a1_a2_proc_0
     + 636 pi_d_a1_a3_proc_0 + 636 pi_d_a1_a4_proc_0 + 636 pi_d_a1_a5_proc_0
     + 636 pi_d_a1_a6_proc_0 + 636 pi_d_a1_a7_proc_0 + 636 pi_d_a1_a8_proc_0
     + 636 pi_d_a1_a9_proc_0 + pi_y1_a1 + pi_y2_a1_proc_0 >= 0
 c7: 1100 pi_p_a1_a0 + 1100 pi_d_a1_a0_proc_1 + 1100 pi_d_a1_a4_proc_1
     + 1100 pi_d_a1_a5_proc_1 + 1100 pi_d_a1_a6_proc_1 + 1100 pi_d_a1_a7_proc_1
     + 1100 pi_d_a1_a8_proc_1 + 1100 pi_d_a1_a9_proc_1 + pi_y1_a1
     + pi_y2_a1_proc_1 >= 0
 c8: - pi_p_a0_a2 + pi_p_a2_a9 + pi_p_a2_a0 + pi_p_a2_a8 - pi_d_a0_a2_proc_0
     + pi_d_a2_a0_proc_0 - pi_d_a1_a2_proc_0 + pi_d_a2_a1_proc_0
     + pi_d_a2_a3_proc_0 - pi_d_a3_a2_proc_0 + pi_d_a2_a4_proc_0
     - pi_d_a4_a2_proc_0 + pi_d_a2_a5_proc_0 - pi_d_a5_a2_proc_0
     + pi_d_a2_a6_proc_0 - pi_d_a6_a2_proc_0 + pi_d_a2_a7_proc_0
     - pi_d_a7_a2_proc_0 + pi_d_a2_a8_proc_0 - pi_d_a8_a2_proc_0
     + pi_d_a2_a9_proc_0 - pi_d_a9_a2_proc_0 >= 0
 c9: 1168 pi_p_a2_a9 + 1168 pi_p_a2_a0 + 1168 pi_p_a2_a8
     + 1168 pi_d_a2_a0_proc_0 + 1168 pi_d_a2_a1_proc_0 + 1168 pi_d_a2_a3_proc_0
     + 1168 pi_d_a2_a4_proc_0 + 1168 pi_d_a2_a5_proc_0 + 1168 pi_d_a2_a6_proc_0
     + 1168 pi_d_a2_a7_proc_0 + 1168 pi_d_a2_a8_proc_0 + 1168 pi_d_a2_a9_proc_0
     + pi_y1_a2 + pi_y2_a2_proc_0 >= 0
 c10: pi_p_a3_a1 - pi_p_a4_a3 + pi_p_a3_a7 + pi_p_a3_a4 - pi_d_a0_a3_proc_0
      + pi_d_a3_a0_proc_0 - pi_d_a1_a3_proc_0 + pi_d_a3_a1_proc_0
      - pi_d_a2_a3_proc_0 + pi_d_a3_a2_proc_0 + pi_d_a3_a4_proc_0
      - pi_d_a4_a3_proc_0 + pi_d_a3_a5_proc_0 - pi_d_a5_a3_proc_0
      + pi_d_a3_a6_proc_0 - pi_d_a6_a3_proc_0 + pi_d_a3_a7_proc_0
      - pi_d_a7_a3_proc_0 + pi_d_a3_a8_proc_0 - pi_d_a8_a3_proc_0
      + pi_d_a3_a9_proc_0 - pi_d_a9_a3_proc_0 >= 0
 c11: 1093 pi_p_a3_a1 + 1093 pi_p_a3_a7 + 1093 pi_p_a3_a4
      + 1093 pi_d_a3_a0_proc_0 + 1093 pi_d_a3_a1_proc_0 + 1093 pi_d_a3_a2_proc_0
      + 1093 pi_d_a3_a4_proc_0 + 1093 pi_d_a3_a5_proc_0 + 1093 pi_d_a3_a6_proc_0
      + 1093 pi_d_a3_a7_proc_0 + 1093 pi_d_a3_a8_proc_0 + 1093 pi_d_a3_a9_proc_0
      + pi_y1_a3 + pi_y2_a3_proc_0 >= 0
 c12: pi_p_a4_a3 - pi_p_a5_a4 + pi_p_a4_a8 - pi_p_a9_a4 - pi_p_a3_a4
      - pi_d_a0_a4_proc_1 - pi_d_a0_a4_proc_0 + pi_d_a4_a0_proc_1
      + pi_d_a4_a0_proc_0 - pi_d_a1_a4_proc_1 - pi_d_a1_a4_proc_0
      + pi_d_a4_a1_proc_1 + pi_d_a4_a1_proc_0 - pi_d_a2_a4_proc_0
      + pi_d_a4_a2_proc_0 - pi_d_a3_a4_proc_0 + pi_d_a4_a3_proc_0
      + pi_d_a4_a5_proc_1 + pi_d_a4_a5_proc_0 - pi_d_a5_a4_proc_1
      - pi_d_a5_a4_proc_0 + pi_d_a4_a6_proc_1 + pi_d_a4_a6_proc_0
      - pi_d_a6_a4_proc_1 - pi_d_a6_a4_proc_0 + pi_d_a4_a7_proc_1
      + pi_d_a4_a7_proc_0 - pi_d_a7_a4_proc_1 - pi_d_a7_a4_proc_0
      + pi_d_a4_a8_proc_1 + pi_d_a4_a8_proc_0 - pi_d_a8_a4_proc_1
      - pi_d_a8_a4_proc_0 + pi_d_a4_a9_proc_1 + pi_d_a4_a9_proc_0
      - pi_d_a9_a4_proc_1 - pi_d_a9_a4_proc_0 >= 0
 c13: 971 pi_p_a4_a3 + 971 pi_p_a4_a8 + 971 pi_d_a4_a0_proc_0
      + 971 pi_d_a4_a1_proc_0 + 971 pi_d_a4_a2_proc_0 + 971 pi_d_a4_a3_proc_0
      + 971 pi_d_a4_a5_proc_0 + 971 pi_d_a4_a6_proc_0 + 971 pi_d_a4_a7_proc_0
      + 971 pi_d_a4_a8_proc_0 + 971 pi_d_a4_a9_proc_0 + pi_y1_a4
      + pi_y2_a4_proc_0 >= 0
 c14: 833 pi_p_a4_a3 + 833 pi_p_a4_a8 + 833 pi_d_a4_a0_proc_1
      + 833 pi_d_a4_a1_proc_1 + 833 pi_d_a4_a5_proc_1 + 833 pi_d_a4_a6_proc_1
      + 833 pi_d_a4_a7_proc_1 + 833 pi_d_a4_a8_proc_1 + 833 pi_d_a4_a9_proc_1
      + pi_y1_a4 + pi_y2_a4_proc_1 >= 0
 c15: pi_p_a5_a4 + pi_p_a5_a6 - pi_p_a7_a5 - pi_d_a0_a5_proc_1
      - pi_d_a0_a5_proc_0 + pi_d_a5_a0_proc_1 + pi_d_a5_a0_proc_0
      - pi_d_a1_a5_proc_1 - pi_d_a1_a5_proc_0 + pi_d_a5_a1_proc_1
      + pi_d_a5_a1_proc_0 - pi_d_a2_a5_proc_0 + pi_d_a5_a2_proc_0
      - pi_d_a3_a5_proc_0 + pi_d_a5_a3_proc_0 - pi_d_a4_a5_proc_1
      - pi_d_a4_a5_proc_0 + pi_d_a5_a4_proc_1 + pi_d_a5_a4_proc_0
      + pi_d_a5_a6_proc_1 + pi_d_a5_a6_proc_0 - pi_d_a6_a5_proc_1
      - pi_d_a6_a5_proc_0 + pi_d_a5_a7_proc_1 + pi_d_a5_a7_proc_0
      - pi_d_a7_a5_proc_1 - pi_d_a7_a5_proc_0 + pi_d_a5_a8_proc_1
      + pi_d_a5_a8_proc_0 - pi_d_a8_a5_proc_1 - pi_d_a8_a5_proc_0
      + pi_d_a5_a9_proc_1 + pi_d_a5_a9_proc_0 - pi_d_a9_a5_proc_1
      - pi_d_a9_a5_proc_0 >= 0
 c16: 1109 pi_p_a5_a4 + 1109 pi_p_a5_a6 + 1109 pi_d_a5_a0_proc_0
      + 1109 pi_d_a5_a1_proc_0 + 1109 pi_d_a5_a2_proc_0 + 1109 pi_d_a5_a3_proc_0
      + 1109 pi_d_a5_a4_proc_0 + 1109 pi_d_a5_a6_proc_0 + 1109 pi_d_a5_a7_proc_0
      + 1109 pi_d_a5_a8_proc_0 + 1109 pi_d_a5_a9_proc_0 + pi_y1_a5
      + pi_y2_a5_proc_0 >= 0
 c17: 859 pi_p_a5_a4 + 859 pi_p_a5_a6 + 859 pi_d_a5_a0_proc_1
      + 859 pi_d_a5_a1_proc_1 + 859 pi_d_a5_a4_proc_1 + 859 pi_d_a5_a6_proc_1
      + 859 pi_d_a5_a7_proc_1 + 859 pi_d_a5_a8_proc_1 + 859 pi_d_a5_a9_proc_1
      + pi_y1_a5 + pi_y2_a5_proc_1 >= 0
 c18: - pi_p_a5_a6 - pi_p_a8_a6 + pi_p_a6_a7 + pi_p_a6_a1 - pi_d_a0_a6_proc_1
      - pi_d_a0_a6_proc_0 + pi_d_a6_a0_proc_1 + pi_d_a6_a0_proc_0
      - pi_d_a1_a6_proc_1 - pi_d_a1_a6_proc_0 + pi_d_a6_a1_proc_1
      + pi_d_a6_a1_proc_0 - pi_d_a2_a6_proc_0 + pi_d_a6_a2_proc_0
      - pi_d_a3_a6_proc_0 + pi_d_a6_a3_proc_0 - pi_d_a4_a6_proc_1
      - pi_d_a4_a6_proc_0 + pi_d_a6_a4_proc_1 + pi_d_a6_a4_proc_0
      - pi_d_a5_a6_proc_1 - pi_d_a5_a6_proc_0 + pi_d_a6_a5_proc_1
      + pi_d_a6_a5_proc_0 + pi_d_a6_a7_proc_1 + pi_d_a6_a7_proc_0
      - pi_d_a7_a6_proc_1 - pi_d_a7_a6_proc_0 + pi_d_a6_a8_proc_1
      + pi_d_a6_a8_proc_0 - pi_d_a8_a6_proc_1 - pi_d_a8_a6_proc_0
      + pi_d_a6_a9_proc_1 + pi_d_a6_a9_proc_0 - pi_d_a9_a6_proc_1
      - pi_d_a9_a6_proc_0 >= 0
 c19: 1004 pi_p_a6_a7 + 1004 pi_p_a6_a1 + 1004 pi_d_a6_a0_proc_0
      + 1004 pi_d_a6_a1_proc_0 + 1004 pi_d_a6_a2_proc_0 + 1004 pi_d_a6_a3_proc_0
      + 1004 pi_d_a6_a4_proc_0 + 1004 pi_d_a6_a5_proc_0 + 1004 pi_d_a6_a7_proc_0
      + 1004 pi_d_a6_a8_proc_0 + 1004 pi_d_a6_a9_proc_0 + pi_y1_a6
      + pi_y2_a6_proc_0 >= 0
 c20: 749 pi_p_a6_a7 + 749 pi_p_a6_a1 + 749 pi_d_a6_a0_proc_1
      + 749 pi_d_a6_a1_proc_1 + 749 pi_d_a6_a4_proc_1 + 749 pi_d_a6_a5_proc_1
      + 749 pi_d_a6_a7_proc_1 + 749 pi_d_a6_a8_proc_1 + 749 pi_d_a6_a9_proc_1
      + pi_y1_a6 + pi_y2_a6_proc_1 >= 0
 c21: - pi_p_a3_a7 - pi_p_a6_a7 + pi_p_a7_a5 - pi_d_a0_a7_proc_1
      - pi_d_a0_a7_proc_0 + pi_d_a7_a0_proc_1 + pi_d_a7_a0_proc_0
      - pi_d_a1_a7_proc_1 - pi_d_a1_a7_proc_0 + pi_d_a7_a1_proc_1
      + pi_d_a7_a1_proc_0 - pi_d_a2_a7_proc_0 + pi_d_a7_a2_proc_0
      - pi_d_a3_a7_proc_0 + pi_d_a7_a3_proc_0 - pi_d_a4_a7_proc_1
      - pi_d_a4_a7_proc_0 + pi_d_a7_a4_proc_1 + pi_d_a7_a4_proc_0
      - pi_d_a5_a7_proc_1 - pi_d_a5_a7_proc_0 + pi_d_a7_a5_proc_1
      + pi_d_a7_a5_proc_0 - pi_d_a6_a7_proc_1 - pi_d_a6_a7_proc_0
      + pi_d_a7_a6_proc_1 + pi_d_a7_a6_proc_0 + pi_d_a7_a8_proc_1
      + pi_d_a7_a8_proc_0 - pi_d_a8_a7_proc_1 - pi_d_a8_a7_proc_0
      + pi_d_a7_a9_proc_1 + pi_d_a7_a9_proc_0 - pi_d_a9_a7_proc_1
      - pi_d_a9_a7_proc_0 >= 0
 c22: 1176 pi_p_a7_a5 + 1176 pi_d_a7_a0_proc_0 + 1176 pi_d_a7_a1_proc_0
      + 1176 pi_d_a7_a2_proc_0 + 1176 pi_d_a7_a3_proc_0 + 1176 pi_d_a7_a4_proc_0
      + 1176 pi_d_a7_a5_proc_0 + 1176 pi_d_a7_a6_proc_0 + 1176 pi_d_a7_a8_proc_0
      + 1176 pi_d_a7_a9_proc_0 + pi_y1_a7 + pi_y2_a7_proc_0 >= 0
 c23: 1255 pi_p_a7_a5 + 1255 pi_d_a7_a0_proc_1 + 1255 pi_d_a7_a1_proc_1
      + 1255 pi_d_a7_a4_proc_1 + 1255 pi_d_a7_a5_proc_1 + 1255 pi_d_a7_a6_proc_1
      + 1255 pi_d_a7_a8_proc_1 + 1255 pi_d_a7_a9_proc_1 + pi_y1_a7
      + pi_y2_a7_proc_1 >= 0
 c24: - pi_p_a4_a8 + pi_p_a8_a6 - pi_p_a2_a8 - pi_d_a0_a8_proc_1
      - pi_d_a0_a8_proc_0 + pi_d_a8_a0_proc_1 + pi_d_a8_a0_proc_0
      - pi_d_a1_a8_proc_1 - pi_d_a1_a8_proc_0 + pi_d_a8_a1_proc_1
      + pi_d_a8_a1_proc_0 - pi_d_a2_a8_proc_0 + pi_d_a8_a2_proc_0
      - pi_d_a3_a8_proc_0 + pi_d_a8_a3_proc_0 - pi_d_a4_a8_proc_1
      - pi_d_a4_a8_proc_0 + pi_d_a8_a4_proc_1 + pi_d_a8_a4_proc_0
      - pi_d_a5_a8_proc_1 - pi_d_a5_a8_proc_0 + pi_d_a8_a5_proc_1
      + pi_d_a8_a5_proc_0 - pi_d_a6_a8_proc_1 - pi_d_a6_a8_proc_0
      + pi_d_a8_a6_proc_1 + pi_d_a8_a6_proc_0 - pi_d_a7_a8_proc_1
      - pi_d_a7_a8_proc_0 + pi_d_a8_a7_proc_1 + pi_d_a8_a7_proc_0
      + pi_d_a8_a9_proc_1 + pi_d_a8_a9_proc_0 - pi_d_a9_a8_proc_1
      - pi_d_a9_a8_proc_0 >= 0
 c25: 833 pi_p_a8_a6 + 833 pi_d_a8_a0_proc_0 + 833 pi_d_a8_a1_proc_0
      + 833 pi_d_a8_a2_proc_0 + 833 pi_d_a8_a3_proc_0 + 833 pi_d_a8_a4_proc_0
      + 833 pi_d_a8_a5_proc_0 + 833 pi_d_a8_a6_proc_0 + 833 pi_d_a8_a7_proc_0
      + 833 pi_d_a8_a9_proc_0 + pi_y1_a8 + pi_y2_a8_proc_0 >= 0
 c26: 1168 pi_p_a8_a6 + 1168 pi_d_a8_a0_proc_1 + 1168 pi_d_a8_a1_proc_1
      + 1168 pi_d_a8_a4_proc_1 + 1168 pi_d_a8_a5_proc_1 + 1168 pi_d_a8_a6_proc_1
      + 1168 pi_d_a8_a7_proc_1 + 1168 pi_d_a8_a9_proc_1 + pi_y1_a8
      + pi_y2_a8_proc_1 >= 0
 c27: - pi_p_a2_a9 + pi_p_a9_a4 + pi_p_a9_a0 - pi_d_a0_a9_proc_1
      - pi_d_a0_a9_proc_0 + pi_d_a9_a0_proc_1 + pi_d_a9_a0_proc_0
      - pi_d_a1_a9_proc_1 - pi_d_a1_a9_proc_0 + pi_d_a9_a1_proc_1
      + pi_d_a9_a1_proc_0 - pi_d_a2_a9_proc_0 + pi_d_a9_a2_proc_0
      - pi_d_a3_a9_proc_0 + pi_d_a9_a3_proc_0 - pi_d_a4_a9_proc_1
      - pi_d_a4_a9_proc_0 + pi_d_a9_a4_proc_1 + pi_d_a9_a4_proc_0
      - pi_d_a5_a9_proc_1 - pi_d_a5_a9_proc_0 + pi_d_a9_a5_proc_1
      + pi_d_a9_a5_proc_0 - pi_d_a6_a9_proc_1 - pi_d_a6_a9_proc_0
      + pi_d_a9_a6_proc_1 + pi_d_a9_a6_proc_0 - pi_d_a7_a9_proc_1
      - pi_d_a7_a9_proc_0 + pi_d_a9_a7_proc_1 + pi_d_a9_a7_proc_0
      - pi_d_a8_a9_proc_1 - pi_d_a8_a9_proc_0 + pi_d_a9_a8_proc_1
      + pi_d_a9_a8_proc_0 >= 0
 c28: 529 pi_p_a9_a4 + 529 pi_p_a9_a0 + 529 pi_d_a9_a0_proc_0
      + 529 pi_d_a9_a1_proc_0 + 529 pi_d_a9_a2_proc_0 + 529 pi_d_a9_a3_proc_0
      + 529 pi_d_a9_a4_proc_0 + 529 pi_d_a9_a5_proc_0 + 529 pi_d_a9_a6_proc_0
      + 529 pi_d_a9_a7_proc_0 + 529 pi_d_a9_a8_proc_0 + pi_y1_a9
      + pi_y2_a9_proc_0 >= 0
 c29: 485 pi_p_a9_a4 + 485 pi_p_a9_a0 + 485 pi_d_a9_a0_proc_1
      + 485 pi_d_a9_a1_proc_1 + 485 pi_d_a9_a4_proc_1 + 485 pi_d_a9_a5_proc_1
      + 485 pi_d_a9_a6_proc_1 + 485 pi_d_a9_a7_proc_1 + 485 pi_d_a9_a8_proc_1
      + pi_y1_a9 + pi_y2_a9_proc_1 >= 0

Bounds
       pi_y1_a0 Free
       pi_y1_a1 Free
       pi_y1_a2 Free
       pi_y1_a3 Free
       pi_y1_a4 Free
       pi_y1_a5 Free
       pi_y1_a6 Free
       pi_y1_a7 Free
       pi_y1_a8 Free
       pi_y1_a9 Free
End
