benchmark/results/graph__10-1000-0.10-02_9/graph__10-1000-0.10-02_9_Quinton_Benders_sub.txt
solution for: Quinton Benders_dual_sub
objective: 0.00020496
status: OPTIMAL_SOLUTION(2)
pi_p_a9_a0=0.000
pi_d_a0_a5_proc_0=0.000
pi_d_a6_a4_proc_1=0.000
pi_d_a4_a9_proc_1=0.000
pi_d_a5_a8_proc_1=0.000
pi_d_a8_a6_proc_1=0.000
pi_y1_a0=-0.152
pi_y1_a4=-0.171
pi_y1_a5=-0.176
pi_y1_a6=-0.154
pi_y1_a8=-0.239
pi_y1_a9=-0.108
pi_y2_a0_proc_1=0.152
pi_y2_a4_proc_0=0.171
pi_y2_a5_proc_0=0.176
pi_y2_a6_proc_0=0.154
pi_y2_a8_proc_0=0.239
pi_y2_a9_proc_1=0.009
